File : Instances/p70
Use 331s

43665

1 1 1 1 1 1 1 1 1 1 0 0 0 0 0 0 0 0 0 0 0 0 0 0 0 0 0 0 0 0 

7 6 2 0 5 6 5 0 0 0 
4 0 3 1 6 7 1 8 2 0 
7 0 5 2 1 7 0 9 4 5 
9 9 4 2 0 6 8 8 5 5 
7 9 6 9 8 9 3 2 9 8 
0 0 2 2 8 6 7 9 7 7 
4 5 7 8 3 6 1 8 9 7 
7 6 4 9 1 1 8 1 8 0 
1 0 9 7 4 3 4 5 0 7 
0 4 7 7 5 3 0 6 0 0 
8 1 6 7 4 5 4 2 2 3 
9 4 0 6 6 8 8 7 5 8 
9 7 0 9 9 2 5 6 9 5 
0 2 7 8 1 9 3 3 0 8 
6 0 9 7 7 5 2 1 5 7 
5 8 1 0 8 9 2 2 3 3 
1 0 3 5 5 0 1 4 3 2 
1 8 8 8 9 5 0 8 4 8 
5 2 2 6 9 8 9 1 0 2 
2 2 6 4 7 9 7 5 3 4 

